4 5 1.7
3 1 1 147 2 4 140 2 130 2 4 150 5 160 
3 2 1 214 3 150 2 3 87 2 66 1 5 178 
3 2 1 87 2 62 1 3 180 2 4 190 5 100 
3 2 1 87 2 65 1 5 173 2 4 145 3 136 
1 58 106 235 
1 57 49 113 
1 72 136 231 
1 72 99 214 
1 162 109 372 
